
(set-logic ALL) 

(declare-datatype MyList ((Nil) (Cons (head Real) (tail MyList)) )) 
(declare-fun l0 () MyList) 
(declare-fun l1 () MyList) 
(declare-fun l2 () MyList) 
(declare-fun l3 () MyList) 
(declare-fun i0 () Real) 
(declare-fun i1 () Real) 
(assert (is-Cons Nil) )
(assert (not (= l2 l2)) )
(assert (and (= l3 Nil) (= l3 Nil) (= l2 Nil)) )
(assert (and (= l2 Nil) (= l2 Nil)) )
(assert (is-Nil l2) )
(assert (= l0 Nil) )
(assert (and (is-Nil Nil) (is-Nil Nil) (= l1 Nil) (is-Cons l2)) )
(assert (is-Nil l0) )
(check-sat)
